Variables/c17.txt
N1
N10
N11
N16
N19
N2
N22
N23
N3
N6
N7